# 
# This is the geometry file that corresponds to the current relaxation step.
# If you do not want this file to be written, set the "write_restart_geometry" flag to .false.
#  aims_uuid : 01EF35AD-0CEB-4967-A1E5-ECDDF5D29771                                
# 
lattice_vector     13.41126888     -0.03224075      0.00418519
lattice_vector     -6.74849854     11.59411252      0.00732943
lattice_vector     -0.00680998     -0.00677736      8.18199321
atom_frac      -0.00065742      0.45217307      0.65671726 C
atom_frac       0.54765795      0.54734172      0.65686533 C
atom_frac       0.45229235     -0.00026141      0.65660944 C
atom_frac       0.54803861      0.00022756      0.34320095 C
atom_frac       0.45202616      0.45230957      0.34282560 C
atom_frac       0.00064811      0.54810180      0.34302912 C
atom_frac       0.89597160      0.42440989      0.57772035 C
atom_frac       0.57563899      0.47230338      0.57765168 C
atom_frac       0.52724695      0.10352830      0.57732650 C
atom_frac       0.57550302      0.10379807      0.42115159 C
atom_frac       0.52748366      0.42443681      0.42115076 C
atom_frac       0.89659993      0.47277056      0.42143356 C
atom_frac       0.10403928      0.57581553      0.42196731 C
atom_frac       0.42409507      0.52740932      0.42200170 C
atom_frac       0.47300718      0.89642576      0.42241837 C
atom_frac       0.42476304      0.89617786      0.57859465 C
atom_frac       0.47225781      0.57525512      0.57849941 C
atom_frac       0.10338538      0.52743979      0.57826274 C
atom_frac      -0.00146415      0.39984450      0.84844177 Cl
atom_frac       0.59974662      0.59906341      0.84880912 Cl
atom_frac       0.40012862     -0.00045995      0.84819110 Cl
atom_frac       0.60034366      0.00043139      0.15172086 Cl
atom_frac       0.39988018      0.40053418      0.15092578 Cl
atom_frac       0.00145121      0.60052456      0.15137388 Cl
atom_frac       0.79174026      0.35415673      0.63332717 O
atom_frac       0.64592408      0.43901404      0.63322144 O
atom_frac       0.56012799      0.20739313      0.63251967 O
atom_frac       0.64523461      0.20787543      0.36463133 O
atom_frac       0.56106697      0.35463817      0.36471450 O
atom_frac       0.79283250      0.43951625      0.36529520 O
atom_frac       0.20828040      0.64597288      0.36634706 O
atom_frac       0.35389049      0.56079530      0.36642887 O
atom_frac       0.44003650      0.79255580      0.36718370 O
atom_frac       0.35494863      0.79210762      0.63508461 O
atom_frac       0.43877027      0.64513562      0.63495224 O
atom_frac       0.20714253      0.56060200      0.63438169 O
atom_frac       0.66605107      0.33384599      0.49885386 V
atom_frac       0.33394654      0.66612368      0.50074831 V
# 
# What follows is the current estimated Hessian matrix constructed by the BFGS algorithm.
# This is NOT the true Hessian matrix of the system.
# If you do not want this information here, switch it off using the "hessian_to_restart_geometry" keyword.
# 
trust_radius             0.0339865319
hessian_block                1       1         120.841396          47.829105          21.555326          47.829105          68.512825         -43.108899          21.555326         -43.108899          94.731736
hessian_block                1       2          -1.226943           2.387262          -2.416287          -0.368036           3.351425          -6.579691          -0.526501           7.967132         -11.173641
hessian_block                1       3           2.133147          -3.381538           6.191817          -5.111124          -3.631702           1.081533          -2.960716           5.763423          -9.199875
hessian_block                1       4          -0.669435           1.661481          -3.226988           4.283450           4.397209          -2.512184           0.905788          -2.923260           4.164254
hessian_block                1       5           0.444461          -0.778462           0.185382          -0.746428          -1.794319           3.854149          -1.510416          -4.669942           5.567254
hessian_block                1       6          -5.424713          -3.422480           2.365554          -5.022900          -1.317120          -2.317987           3.728425          -1.001632           2.802295
hessian_block                1       7         -50.798505         -13.053006         -19.700666         -14.377354         -17.832718           6.282498         -17.419362           6.996880         -29.941352
hessian_block                1       8           3.004152           4.058326          -3.413301          -1.526332          -2.686572           2.913466          -0.084823          -1.897223           3.085083
hessian_block                1       9           0.225732           1.276387          -1.504047           5.222125           3.376748          -0.450155           0.252650          -1.439679           2.260852
hessian_block                1      10           0.840665           0.903475          -0.454545           0.850924          -1.378746           2.016773          -1.647837          -0.184611          -1.120995
hessian_block                1      11           5.667255           2.388163           0.703494          -2.230600          -1.292070           0.320224           0.910492           1.590686          -1.146197
hessian_block                1      12          -0.187659           2.904401          -5.644419           0.445617           2.239772          -2.897970          -2.377739          -0.681599           0.141180
hessian_block                1      13           1.003241          -4.150953           5.490572           1.028470          -1.965562           4.178346          -0.847442           1.066087          -2.233465
hessian_block                1      14          -5.106221          -3.255239           0.956714           3.508979           1.191828           0.273751           1.115790           1.005982          -1.620371
hessian_block                1      15          -1.145395          -0.671937          -0.106389          -5.951632          -2.688299          -0.964339           0.916188           0.952486          -0.666138
hessian_block                1      16          -1.667687           0.197361          -1.390557           1.877375          -0.188977           1.767977           2.689805          -1.109812           3.046405
hessian_block                1      17          -2.552049          -5.291267           4.330843           1.551065           2.296324          -1.713556           0.476379          -1.974007           2.185356
hessian_block                1      18         -39.863011         -24.855127           7.261756         -23.304824         -34.189331          22.988449           5.225608          21.825443         -32.825072
hessian_block                1      19         -16.925552          -1.912741          -9.764772          -2.066272         -13.825095          15.575739          -9.550837          17.416317         -36.089612
hessian_block                1      20           0.902174          -1.029185           2.391637           1.085625          -2.069204           3.915992           2.263091          -3.065797           5.662315
hessian_block                1      21          -1.213056           2.433007          -4.452638          -0.081374           0.006419           0.021338           2.512024          -3.326545           5.842788
hessian_block                1      22           0.930894          -0.916821           1.975186           0.060706          -0.092272           0.076105          -1.788317           1.815795          -3.263801
hessian_block                1      23          -0.632917           0.014752          -0.545652          -0.552037           0.671272          -1.186577          -1.673542           1.380542          -2.740101
hessian_block                1      24          -0.138442           0.369763          -0.862019           1.010413          -1.136129           2.832633          -1.963629           2.086529          -4.470522
hessian_block                1      25          -3.977437          -3.869542           2.288891          -0.686937           0.291390          -0.711275          -1.962666          -3.964325           4.189223
hessian_block                1      26           0.408650          -0.790544           1.270974          -0.654046           0.826436          -1.385410           0.028740          -0.342722           0.200970
hessian_block                1      27           0.257436          -0.647701           0.794493          -1.667096          -0.545560          -0.852812          -0.408823          -0.075883          -0.423043
hessian_block                1      28          -0.181530          -0.060079          -0.237251          -0.568106           0.253183          -0.621139           0.932830          -0.072656           0.677638
hessian_block                1      29          -1.805141          -0.010673          -1.586961           0.638341           0.211662           0.636055           0.041292           0.216691          -0.123689
hessian_block                1      30           1.689082           0.958518          -0.026631           0.827722           1.249017          -0.221138           0.315846          -0.133704           0.724123
hessian_block                1      31          -1.115049           0.813009          -1.980716          -0.552859           0.781783          -0.952000          -0.091720          -0.225220           0.636474
hessian_block                1      32           0.620121           0.409622           0.428946          -0.151148           0.473521          -0.635298          -0.114679           0.663075          -0.470201
hessian_block                1      33          -0.225895          -0.327055           0.057818           1.642593           0.344712           1.634455           0.287815           0.399242           0.011576
hessian_block                1      34           0.405900          -0.960420           1.253126          -0.895455           0.439152          -1.382786          -1.084917           0.260943          -1.014469
hessian_block                1      35          -0.711992           1.284474          -1.772062          -0.166769          -0.225290           0.121190          -0.829510          -0.618328          -0.043594
hessian_block                1      36          -4.164740          -1.716805          -0.783055          -5.482372          -1.322594          -2.765130           3.675781          -0.346277           4.150771
hessian_block                1      37           0.611988           0.667754           0.270531           0.310110          -0.815094           0.624566          -1.700779           0.118373          -0.024477
hessian_block                1      38           1.776976           0.539713           0.178057          -0.003208           0.074133           0.158391           0.592667           0.196896          -0.212540
hessian_block                2       2         134.767079         -55.409733          23.337574         -55.409733          67.680189          36.535311          23.337574          36.535311          90.243405
hessian_block                2       3           1.354582           3.884805           7.610828           1.341017           0.659289           3.712478          -4.139684          -6.710483         -12.319053
hessian_block                2       4          -0.656397          -1.396513          -3.755827          -1.651220          -0.889277          -4.108772           3.350241           2.894555           6.696905
hessian_block                2       5         -18.634685          12.403996           2.367823          13.091614          -2.501958           6.744485           3.362650           6.190502           6.464471
hessian_block                2       6           0.825401          -1.227219          -1.446325          -1.903327          -0.656230          -3.901038           1.819629           2.048215           4.819950
hessian_block                2       7           1.001140           2.988691           3.759083          -0.002781           1.759977           1.722469           0.808894           0.870486           2.081816
hessian_block                2       8         -44.581131          27.600640           7.789062          27.994668         -35.166989         -21.502174           8.663727         -20.707371         -29.084528
hessian_block                2       9           0.117054          -2.472367          -3.193098          -1.479684          -0.358912          -1.877577           2.093385           3.735682           7.201151
hessian_block                2      10           0.119158           0.424118           0.603073           0.203055          -2.403779          -3.188687          -1.206306          -0.277401          -1.543438
hessian_block                2      11           9.117029          -3.480193           2.918465          -2.979205          -1.248089          -4.893561           3.885866          -5.834352          -3.201146
hessian_block                2      12          -1.531831           0.868816           1.094680           1.032164           1.476919           3.550023          -0.872573          -2.765368          -4.747085
hessian_block                2      13           0.613018          -2.930945          -3.670021           1.477199          -2.284316          -2.185374          -1.193725           0.399008          -0.449030
hessian_block                2      14           2.915571          -4.858400          -4.911337          -5.362416           2.827804          -0.341857          -6.914363           0.200805          -3.383902
hessian_block                2      15           0.131519           1.103616           1.807923          -0.134399           2.064500           4.675618          -2.289344          -1.673393          -4.663373
hessian_block                2      16           0.211634          -1.437400          -1.558833           1.764031           1.351024           2.019287           1.057623           1.889821           3.521593
hessian_block                2      17         -60.549205          17.547748         -22.653118          15.720820         -16.960485          -3.562901         -23.810044          -2.109316         -28.994635
hessian_block                2      18          -0.114351           0.847517           1.277269          -1.491904          -1.389208          -2.854262           0.519773           4.314694           6.604915
hessian_block                2      19           0.418039           0.769757           1.846604          -0.626589          -1.873158          -3.566676           1.376837           3.206603           5.369687
hessian_block                2      20         -16.642639           2.620099          -8.806412           2.257831         -11.339617         -13.401212          -9.237250         -13.778202         -32.839065
hessian_block                2      21          -1.121338          -1.494414          -3.437769          -0.125246           0.334033           0.421114           2.166116           2.991694           4.987244
hessian_block                2      22           1.011136          -0.201634           0.720529           0.124289          -0.259744          -0.366391          -1.787427          -0.229204          -0.934423
hessian_block                2      23          -0.575007          -0.922033          -1.644366          -1.925670          -2.509021          -4.166914          -2.862170          -4.124159          -5.994586
hessian_block                2      24          -0.395609           0.540301           0.059222           0.634812          -0.371414           0.174099          -1.024634           0.224282          -0.369611
hessian_block                2      25          -0.541750          -2.441884          -3.140646          -0.306739          -1.374135          -0.944194          -0.261847           0.207373          -0.652625
hessian_block                2      26          -3.107215           1.085559          -1.396554           4.525586          -0.742198           2.814147           3.942155           0.644094           4.183952
hessian_block                2      27           0.241201           0.161033           0.458868          -0.013996          -0.718243          -1.919146          -0.352666          -0.958610          -1.562197
hessian_block                2      28           0.042745           1.367918           0.964812          -0.157231           2.282828           2.098148          -0.216214           0.556580           0.650506
hessian_block                2      29           1.637145          -2.168666          -1.782316          -0.235901           1.260701           0.717059           0.184309           0.012155          -0.032791
hessian_block                2      30           0.351483          -0.238990          -0.203096           0.014767           0.325839          -0.067552           0.237209           0.806626           0.932720
hessian_block                2      31          -0.184578           1.197567           0.903321          -0.351405           2.495634           1.965527           0.979954          -1.270459          -0.862439
hessian_block                2      32           1.958170          -0.133363           0.446048          -0.655851           0.966217           0.471826           0.414961          -0.196500           0.360839
hessian_block                2      33          -0.174230           0.978800           0.533745           0.671628          -0.235892           0.267168           0.738192           0.110306           0.635337
hessian_block                2      34           0.120413           0.034698           0.474366          -1.204687          -1.938850          -2.123246           0.495396          -1.110108          -1.453145
hessian_block                2      35          -4.829537           5.281507           3.491884           1.549048          -1.815544          -1.100690          -0.974792           2.976355           3.534057
hessian_block                2      36           0.356813          -0.308438          -0.930094           0.395777          -0.348250          -0.405855           0.121466          -1.202129          -1.453911
hessian_block                2      37          -1.261622           0.270128          -0.011440           0.271924           1.180727           0.672087           0.012079          -1.509600          -0.926578
hessian_block                2      38           0.928014          -0.582944           0.678229           0.580546          -0.656742          -0.049230           0.174668           0.489102           0.611466
hessian_block                3       3          41.016576           1.014367         -48.682163           1.014367         148.925777          -2.835051         -48.682163          -2.835051          95.942245
hessian_block                3       4           0.662004          -0.380459          -2.840756          -0.343292          -8.656943           1.837497          -2.793312           1.769417           2.909479
hessian_block                3       5           0.167075          -1.768943           2.370054          -2.065883          -1.232766           4.134996          -4.386614          -4.716258           8.238710
hessian_block                3       6          -0.047772           4.283526           0.707705           2.112464           4.161538          -3.704453          -3.276733          -2.249263           5.347512
hessian_block                3       7          -2.327014           3.553219           2.450676           0.083102           1.091851          -0.369404          -2.332411           0.830703           3.036858
hessian_block                3       8           1.686674           4.117714          -2.943602          -1.862526          -3.055481           2.628665          -2.161168          -1.362060           2.811715
hessian_block                3       9         -14.904918          -8.298180          16.235825         -10.846700         -60.663958          18.778611          16.551422          14.961682         -32.372507
hessian_block                3      10           0.021409           0.280577           1.530544          -3.256684           0.137645           4.489146           1.434584           0.057123          -2.720564
hessian_block                3      11          -0.786683           7.568698          -0.566162           0.386804          -5.068654          -0.012486           1.379185           0.525531          -2.736874
hessian_block                3      12           0.670496          -6.662023          -0.974486          -0.439600          -4.895847           0.612206           1.301952           0.862366          -1.805651
hessian_block                3      13          -1.149790          -0.621651           1.121769          -1.441679           0.840059           1.795524           1.414855          -1.173423          -1.870452
hessian_block                3      14          -0.240782          -7.190378           1.032807           0.194999           4.545223          -0.682640           0.981488           0.838573          -1.320566
hessian_block                3      15           0.336591           0.395759           0.439435           3.841832           1.467073          -7.163171           0.135673          -2.545128           0.507097
hessian_block                3      16         -14.502984           7.340140          15.453871           8.723897         -53.947414         -14.072647          15.008025         -12.448958         -29.625041
hessian_block                3      17          -2.468473          -4.540910           3.980409           0.851043           2.990870          -1.227910          -2.170133          -1.129303           4.049663
hessian_block                3      18          -0.463730           4.409601           0.439316           1.098849           3.807388          -1.601517          -2.037304          -1.216729           3.127871
hessian_block                3      19          -0.954743           0.071374           1.773927           1.935658          -0.160127          -3.372674          -3.415902           0.666465           5.316073
hessian_block                3      20          -1.535397          -0.096706           2.490756          -2.372796           0.728652           3.976949          -4.119415           0.824045           6.058714
hessian_block                3      21         -13.537576           0.257009          20.146460           0.300028         -17.725613          -0.433069          20.168652           0.042522         -37.559135
hessian_block                3      22          -1.866288          -0.512543           3.156639          -0.298177           0.399856           0.461633           2.697925           0.225054          -4.027102
hessian_block                3      23           0.940119           0.269148          -1.563897           1.384264          -0.529828          -2.439540           2.550762          -0.469430          -4.031402
hessian_block                3      24           0.575622           0.227213          -1.127391          -0.999105          -0.247753           1.864164           1.879470          -0.109480          -3.148840
hessian_block                3      25           0.883778          -0.977516          -1.557516          -0.213116          -0.941747           0.494878           0.348746           0.305272          -1.023241
hessian_block                3      26          -0.643660          -0.456653           0.880814           0.674907           0.317848          -1.089735          -0.648642           0.060295           0.196794
hessian_block                3      27           1.064117          -2.538518          -1.941070           2.593147          -6.457025          -4.186670          -2.614773           3.250867           4.443420
hessian_block                3      28           0.403552           0.187414          -0.111418           0.129518          -0.583954          -0.170447          -0.413166           0.643518           0.838966
hessian_block                3      29           0.648221          -2.446349          -1.056926          -0.012734           2.222851           0.213947           0.075389           0.757173          -0.144522
hessian_block                3      30           0.136033           1.757130           0.435367           0.361343           1.230907          -0.356802          -0.519113           0.497302           0.862079
hessian_block                3      31           1.313166          -0.784527          -1.472535           0.373565          -0.419703          -0.714125          -0.132688           0.574232           0.225687
hessian_block                3      32           0.136042           2.466544           0.330297           0.386831          -0.980225          -0.228407           0.604268           0.616229          -0.248920
hessian_block                3      33           0.423577           0.470450          -0.260656          -0.499504           3.872178           1.169499           0.096372           0.352966           0.471400
hessian_block                3      34           1.028889           1.768161          -1.874465          -0.997542          -5.207363           1.691308          -2.215179          -3.127537           3.872243
hessian_block                3      35           1.557630           0.795924          -1.986076          -0.044330          -1.103153           0.150952           0.127455           0.065210          -0.631930
hessian_block                3      36           0.207127          -0.366644          -0.428202          -0.552978          -0.853996           0.420619           0.401674           0.034323          -0.645941
hessian_block                3      37           0.582040           0.463311           0.637765          -1.131503           0.193511           0.600249           1.604310          -0.049866          -1.329863
hessian_block                3      38          -0.715194          -0.376388           1.138080           0.386161           0.747451           0.328875          -0.240219          -0.032879           0.313454
hessian_block                4       4          42.561719          -0.043101         -50.574746          -0.043101         149.393465          -1.508264         -50.574746          -1.508264          97.642216
hessian_block                4       5           0.640107           1.510291          -3.777425           2.469331           1.211627          -4.622065           5.348326           4.508940         -10.183872
hessian_block                4       6           0.529656          -4.400104          -1.535778          -2.890417          -5.023245           4.562975           4.910575           3.192221          -7.518927
hessian_block                4       7           1.409399          -2.000405          -1.236113          -0.478321          -0.511851           0.785139           1.645989          -0.410391          -1.993674
hessian_block                4       8          -1.245148          -5.287078           2.152731           1.796704           3.724198          -2.297687           1.669500           1.340644          -1.976142
hessian_block                4       9          -0.105732           0.486417           1.130802           1.389714           3.790665          -3.842387           0.786385          -2.686211          -1.035132
hessian_block                4      10         -15.039685           7.415338          15.441227          10.870676         -56.032094         -17.221233          15.815826         -12.679400         -30.257595
hessian_block                4      11          -0.169741          -6.177591           1.633323          -0.575297           4.630673           0.863716          -2.247096          -0.493389           4.241671
hessian_block                4      12          -0.872379           6.060397           1.494973           0.290421           4.479364          -0.500996          -1.644495          -1.003287           2.344355
hessian_block                4      13           0.438259           2.085262          -0.577734           1.794106           0.051647          -3.248747          -2.504632           0.821198           3.932441
hessian_block                4      14           0.062338           6.697545          -0.106752          -0.541639          -3.830128           1.118445          -1.436623          -0.566941           1.987210
hessian_block                4      15         -15.317111          -8.448199          16.401768         -11.097320         -59.846472          19.532177          16.549394          15.358693         -32.529878
hessian_block                4      16          -0.209404           0.253041           1.349027          -1.155202          -1.183084           1.790723           1.409080           0.409400          -2.240317
hessian_block                4      17           2.173710           6.084756          -3.857525          -0.553927          -4.007018           1.268097           1.664518           1.063849          -3.100077
hessian_block                4      18          -0.221076          -4.934232           0.812115          -1.439743          -4.200479           2.003288           1.682922           1.300316          -2.479760
hessian_block                4      19           0.180174           0.109860          -0.248810          -0.365395          -0.286548           0.274822           1.121944           0.139433          -1.113335
hessian_block                4      20           0.415731           0.132341          -0.970128           0.150437          -0.782230          -0.596733           1.309763          -0.754920          -1.891682