lattice_vector  13.4799928665  0.0000000000  0.0000000000
lattice_vector  -6.7496767044 11.6684303284  0.0000000000
lattice_vector   0.0000000000  0.0000000000  8.7799978256
atom_frac  0.000000000  0.445800006  0.637899995 C
atom_frac  0.554199994  0.554199994  0.637899995 C
atom_frac  0.445800006  0.000000000  0.637899995 C
atom_frac  0.554199994  0.000000000  0.362100005 C
atom_frac  0.445800006  0.445800006  0.362100005 C
atom_frac  0.000000000  0.554199994  0.362100005 C
atom_frac  0.897400022  0.419800013  0.574400008 C
atom_frac  0.580200016  0.477600008  0.574400008 C
atom_frac  0.522400022  0.102600001  0.574400008 C
atom_frac  0.580200016  0.102600001  0.425599992 C
atom_frac  0.522400022  0.419800013  0.425599992 C
atom_frac  0.897400022  0.477600008  0.425599992 C
atom_frac  0.102600001  0.580200016  0.425599992 C
atom_frac  0.419800013  0.522400022  0.425599992 C
atom_frac  0.477600008  0.897400022  0.425599992 C
atom_frac  0.419800013  0.897400022  0.574400008 C
atom_frac  0.477600008  0.580200016  0.574400008 C
atom_frac  0.102600001  0.522400022  0.574400008 C
atom_frac  0.000000000  0.381260008  0.806800008 Cl
atom_frac  0.618740022  0.618740022  0.806800008 Cl
atom_frac  0.381260008  0.000000000  0.806800008 Cl
atom_frac  0.618740022  0.000000000  0.193200007 Cl
atom_frac  0.381260008  0.381260008  0.193200007 Cl
atom_frac  0.000000000  0.618740022  0.193200007 Cl
atom_frac  0.802999973  0.352200001  0.627200007 O
initial_moment -1.0
atom_frac  0.647800028  0.450800002  0.627200007 O
initial_moment -1.0
atom_frac  0.549199998  0.196999997  0.627200007 O
atom_frac  0.647800028  0.196999997  0.372799993 O
atom_frac  0.549199998  0.352200001  0.372799993 O
atom_frac  0.802999973  0.450800002  0.372799993 O
atom_frac  0.196999997  0.647800028  0.372799993 O
atom_frac  0.352200001  0.549199998  0.372799993 O
atom_frac  0.450800002  0.802999973  0.372799993 O
initial_moment -1.0
atom_frac  0.352200001  0.802999973  0.627200007 O
atom_frac  0.450800002  0.647800028  0.627200007 O
atom_frac  0.196999997  0.549199998  0.627200007 O
atom_frac  0.666700006  0.333299994  0.500000000 V
initial_moment 2.0
atom_frac  0.333299994  0.666700006  0.500000000 V
initial_moment 1.0
