lattice_vector     13.41126888     -0.03224075      0.00418519
lattice_vector     -6.74849854     11.59411252      0.00732943
lattice_vector     -0.00680998     -0.00677736      8.18199321
atom_frac      -0.00036792      0.45180238      0.65523713 C
atom_frac       0.55170341      0.54972042      0.65463499 C
atom_frac       0.45023184      0.00028065      0.65476409 C
atom_frac       0.54797294      0.00043408      0.34433093 C
atom_frac       0.45010524      0.44831972      0.34494467 C
atom_frac      -0.00040751      0.55015562      0.34528911 C
atom_frac       0.89681797      0.42519963      0.57857898 C
atom_frac       0.57708084      0.47263648      0.57889669 C
atom_frac       0.52624164      0.10307563      0.57799065 C
atom_frac       0.57462685      0.10317059      0.42106887 C
atom_frac       0.52711690      0.42276177      0.42074501 C
atom_frac       0.89682044      0.47390997      0.42189473 C
atom_frac       0.10360401      0.57815661      0.42218021 C
atom_frac       0.42335687      0.52468697      0.42100909 C
atom_frac       0.47151450      0.89669747      0.42087414 C
atom_frac       0.42213757      0.89634866      0.57776061 C
atom_frac       0.47541234      0.57663376      0.57850407 C
atom_frac       0.10335098      0.52848163      0.57883972 C
atom_frac      -0.00084682      0.39501618      0.84485111 Cl
atom_frac       0.60897793      0.60665058      0.84401078 Cl
atom_frac       0.39567348     -0.00005232      0.84597813 Cl
atom_frac       0.60433038      0.00099378      0.15442316 Cl
atom_frac       0.39310713      0.39114046      0.15555111 Cl
atom_frac      -0.00015933      0.60514986      0.15437061 Cl
atom_frac       0.79417834      0.35694575      0.63653726 O
initial_moment -1.0
atom_frac       0.64366207      0.43811936      0.63655372 O
initial_moment -1.0
atom_frac       0.56180481      0.20589100      0.63583845 O
atom_frac       0.64262241      0.20581345      0.36292367 O
atom_frac       0.56145694      0.35607484      0.36315163 O
atom_frac       0.79393454      0.43832723      0.36409604 O
atom_frac       0.20490514      0.64548021      0.36331105 O
atom_frac       0.35463458      0.55603831      0.36300549 O
atom_frac       0.43884719      0.79511422      0.36321213 O
initial_moment -1.0
atom_frac       0.35495200      0.79503616      0.63671707 O
atom_frac       0.44426940      0.64547367      0.63647134 O
atom_frac       0.20500961      0.56110709      0.63637247 O
atom_frac       0.66706363      0.33275890      0.49984424 V
initial_moment 2.0
atom_frac       0.33433432      0.66578263      0.49981530 V
initial_moment 1.0
