# 
# This is the geometry file that corresponds to the current relaxation step.
# If you do not want this file to be written, set the "write_restart_geometry" flag to .false.
#  aims_uuid : 2ECE3C4A-D2F8-4138-ABE2-F2004055C8C4                                
# 
lattice_vector     13.41126888     -0.03224075      0.00418519
lattice_vector     -6.74849854     11.59411252      0.00732943
lattice_vector     -0.00680998     -0.00677736      8.18199321
atom_frac      -0.00015088      0.45172579      0.65570425 C
atom_frac       0.54927548      0.54926156      0.65621331 C
atom_frac       0.45181514     -0.00023357      0.65559527 C
atom_frac       0.54828156      0.00020657      0.34408195 C
atom_frac       0.45067944      0.45083024      0.34354727 C
atom_frac       0.00016504      0.54802350      0.34398207 C
atom_frac       0.89669659      0.42437304      0.57811674 C
atom_frac       0.57583774      0.47314287      0.57936993 C
atom_frac       0.52776633      0.10301170      0.57845241 C
atom_frac       0.57554764      0.10329893      0.42158697 C
atom_frac       0.52679549      0.42418569      0.42037525 C
atom_frac       0.89692219      0.47209354      0.42116679 C
atom_frac       0.10327017      0.57530090      0.42153800 C
atom_frac       0.42420305      0.52700644      0.42035017 C
atom_frac       0.47237046      0.89699417      0.42125990 C
atom_frac       0.42464592      0.89672034      0.57814182 C
atom_frac       0.47310355      0.57582689      0.57942187 C
atom_frac       0.10305996      0.52764370      0.57850750 C
atom_frac      -0.00063237      0.39734026      0.84552010 Cl
atom_frac       0.60429180      0.60422099      0.84549675 Cl
atom_frac       0.39700727     -0.00083161      0.84506217 Cl
atom_frac       0.60278286      0.00075537      0.15438901 Cl
atom_frac       0.39561536      0.39589945      0.15427287 Cl
atom_frac       0.00069817      0.60269257      0.15437311 Cl
atom_frac       0.79413475      0.35756858      0.63631356 O
atom_frac       0.64235590      0.43885166      0.63705910 O
atom_frac       0.56268295      0.20562764      0.63574818 O
atom_frac       0.64233173      0.20585562      0.36338269 O
atom_frac       0.56101287      0.35765469      0.36266349 O
atom_frac       0.79426046      0.43715885      0.36385194 O
atom_frac       0.20586328      0.64218281      0.36338157 O
atom_frac       0.35781566      0.56145044      0.36261075 O
atom_frac       0.43729185      0.79432613      0.36395025 O
atom_frac       0.35781931      0.79413079      0.63633065 O
atom_frac       0.43872254      0.64222518      0.63716190 O
atom_frac       0.20577588      0.56278752      0.63586892 O
atom_frac       0.66656240      0.33333057      0.49983502 V
atom_frac       0.33339915      0.66669359      0.49989494 V
# 
# What follows is the current estimated Hessian matrix constructed by the BFGS algorithm.
# This is NOT the true Hessian matrix of the system.
# If you do not want this information here, switch it off using the "hessian_to_restart_geometry" keyword.
# 
trust_radius             0.0500000007
hessian_block                1       1          98.996368          37.656402          22.921444          37.656402          53.941117         -37.006276          22.921444         -37.006276          96.584047
hessian_block                1       2           0.023576           1.463385          -2.503508          -0.472526           1.588907          -3.348380          -1.125592           4.155420          -8.144368
hessian_block                1       3           0.498945          -1.983325           3.923224           1.186012           1.585913          -1.232036          -0.962277           3.847244          -7.714090
hessian_block                1       4          -0.343349           1.992532          -3.944197           0.867353           1.288621          -1.038336           1.030434          -3.895401           7.696285
hessian_block                1       5           0.428558          -0.547200           1.515221           0.212443          -2.125759           3.927074           1.119361          -4.141470           8.120638
hessian_block                1       6          -1.457100          -2.423242           2.843387          -1.236225           0.217605          -2.821666           0.994970          -4.022793           7.436340
hessian_block                1       7         -49.312567         -12.897204         -20.213890         -13.220748         -14.235489           4.280539         -19.688596           4.452225         -31.519109
hessian_block                1       8          -0.783749          -0.923332           0.961062          -0.049123          -0.158769           0.230859          -0.742291          -1.159552           1.196743
hessian_block                1       9           0.131949           0.039956           0.108749          -1.103178          -1.167176           0.337563          -0.341017          -0.382584           0.071133
hessian_block                1      10          -0.342145          -0.452064           0.328018          -0.991503          -1.371831           0.676939           0.431339           0.628675          -0.287183
hessian_block                1      11          -0.344111          -0.432061           0.420475           0.683301           0.969947          -1.089259           0.718415           1.188401          -1.263676
hessian_block                1      12           1.463868           2.794702          -3.326159           0.790238           1.819522          -1.230366          -0.231803           0.670370          -0.576682
hessian_block                1      13           3.336469           1.459269           0.468164           1.488393           0.601281           1.306690           0.050093           1.237334          -1.359233
hessian_block                1      14           0.312829           0.525384          -0.798083           0.640782           0.944848          -1.173977           0.310295           2.041995          -2.845453
hessian_block                1      15          -0.411226          -0.676222           0.721887          -0.845486          -0.933949           0.728208           0.181338           1.031731          -1.214581
hessian_block                1      16           0.190552           0.202630          -0.225208          -1.470483          -2.278860           2.222138          -0.041358          -0.664028           0.877195
hessian_block                1      17          -0.379840          -0.420477           0.445642          -0.614707          -0.991408           1.351400          -0.312196          -1.982906           2.739547
hessian_block                1      18         -35.316921         -21.206171           5.187983         -20.786994         -27.613240          18.282961           4.952967          17.991708         -29.894785
hessian_block                1      19         -10.205869           0.262978          -9.781067           0.040128         -11.024789          16.653046          -9.480564          16.798860         -41.472834
hessian_block                1      20           0.343162          -0.606214           1.314192           0.630500          -0.957256           2.085554           1.374490          -1.992806           4.467199
hessian_block                1      21          -0.588374           0.839251          -1.903374           0.001039          -0.115637           0.208853           1.419709          -2.004725           4.632261
hessian_block                1      22           0.676043          -0.808399           1.997747          -0.002405          -0.153283           0.240629          -1.381530           2.047160          -4.580815
hessian_block                1      23          -0.377003           0.551920          -1.195526          -0.610722           0.973490          -2.129865          -1.389962           2.045205          -4.566107
hessian_block                1      24          -0.362557           0.611746          -1.400639           0.539772          -0.893021           1.891527          -1.371368           1.896805          -4.383691
hessian_block                1      25          -2.475584          -4.061047           3.680353          -0.948137           0.076959          -0.840677          -0.791659          -3.090188           4.491605
hessian_block                1      26           0.679653           0.612615          -0.531180          -0.335550          -0.803895           0.849946           0.162394          -0.063361           0.060929
hessian_block                1      27          -0.343744           0.074255          -0.291383           0.864468           0.800103          -0.150529           0.491927           0.105016           0.154468
hessian_block                1      28           0.220863          -0.270898           0.495454           0.698032           1.224593          -0.761699          -0.653411           0.143265          -0.606114
hessian_block                1      29           0.597765           1.203083          -1.312171          -0.430968          -0.072829          -0.063607          -0.175056           0.212215          -0.290941
hessian_block                1      30          -0.806890          -0.698689          -0.292748          -0.246564          -0.175103           0.514188          -0.610317          -0.088030           0.147498
hessian_block                1      31          -1.943047          -1.866742           0.717776          -0.354777          -0.493786           1.121630          -0.751669          -0.187644           0.061610
hessian_block                1      32           0.002025          -0.050224           0.293071          -1.203804          -0.733337           0.039801          -1.039633          -1.435507           1.449455
hessian_block                1      33           0.431905          -0.100344           0.518588           1.205307           0.671365           0.007778          -0.679639          -0.049368          -0.461770
hessian_block                1      34          -0.875277          -0.285461          -0.293533           1.877814           1.925845          -1.241093           0.750881           0.378679           0.081230
hessian_block                1      35           1.048509           0.473045           0.301535           0.606952           0.473415          -0.358724           1.025258           1.394855          -1.398359
hessian_block                1      36          -2.441698          -1.292300          -0.400610          -4.011488          -0.189837          -3.081765           3.867723          -0.262973           4.226197
hessian_block                1      37           0.335976           0.385314          -0.373471          -0.237767          -0.178169           0.300356          -0.022800           0.042152           0.097064
hessian_block                1      38           1.392038           0.853149          -0.377226          -0.815786          -0.436109           0.310575          -0.010302           0.120299          -0.011654
hessian_block                2       2          97.569885         -38.557569          21.253634         -38.557569          55.265679          37.637646          21.253634          37.637646          95.028092
hessian_block                2       3           1.269336           1.709326           4.135470          -1.003687          -0.285021          -1.342130          -2.583837          -3.181606          -8.309571
hessian_block                2       4          -1.269610          -1.612122          -4.205138          -0.744578          -0.361016          -1.064050           2.536706           3.319779           8.175539
hessian_block                2       5          -0.276328           0.798019           1.631275           1.397973           1.117097           4.284956           2.749244           3.615585           8.418345
hessian_block                2       6           1.440333           1.005100           3.001370          -0.572957          -1.300923          -2.800808           2.545626           3.232120           8.289082
hessian_block                2       7          -0.307174          -0.549112          -0.242529          -0.139233          -0.754709          -0.529711          -0.178211           0.690067           0.372378
hessian_block                2       8         -35.248580          22.275982           6.509246          21.862930         -29.452429         -19.438289           5.226596         -18.725062         -30.338399
hessian_block                2       9           0.230018          -0.118398           0.045265           0.261600           0.453475           0.164164          -0.299351           0.516836           0.110210
hessian_block                2      10          -0.031170           0.339827           0.329690           0.331631           0.772014           0.400959           0.174429          -0.640377          -0.333640
hessian_block                2      11           2.203849           0.562613           2.742114          -1.261622          -0.522300          -3.224227          -0.411074          -1.132281          -1.941390
hessian_block                2      12          -0.099872          -0.446859          -0.094356          -0.302050          -0.023526           0.013686           0.314479          -0.515227          -0.084161
hessian_block                2      13          -1.411771          -0.246634          -2.087104          -0.984058           0.169030          -0.644139           0.106290          -0.917517          -1.017186
hessian_block                2      14           0.134994          -1.892393          -3.834527          -0.647639           1.065296          -0.255039          -1.583058          -1.579147          -3.738160
hessian_block                2      15           0.085263           0.473533           0.798865           0.872619          -0.266562           0.756480          -0.086357          -1.107451          -1.377718
hessian_block                2      16           0.166014          -0.175009          -0.362950           1.768825           0.182279           2.289799          -0.080927           0.933093           1.073918
hessian_block                2      17         -48.951108          13.593288         -19.580174          14.404424         -14.985178          -3.197644         -18.043046          -3.978613         -27.985589
hessian_block                2      18          -0.753331           0.448076          -0.359653          -0.534258          -0.330422          -1.152285           0.081717           1.144359           1.412513
hessian_block                2      19           0.304774           0.416439           1.035238          -0.632631          -0.930856          -2.173601           1.480872           2.171551           4.629532
hessian_block                2      20          -9.803882          -0.649946          -9.428206          -0.469750         -10.506938         -16.436491          -9.450543         -16.627488         -41.257830
hessian_block                2      21          -0.698594          -0.797531          -2.091341           0.042345           0.085834           0.194415           1.522752           2.200102           4.813737
hessian_block                2      22           0.652611           0.868658           2.130473           0.061145           0.124322           0.229084          -1.525610          -2.215830          -4.761525
hessian_block                2      23          -0.344447          -0.637235          -1.228455          -0.714459          -0.871357          -2.352807          -1.511116          -2.232642          -4.753927
hessian_block                2      24          -0.434214          -0.609247          -1.465189           0.651763           0.838714           2.066583          -1.454639          -2.099754          -4.569867
hessian_block                2      25           0.457722           1.091150           0.997441          -0.074459           0.144031          -0.279553           0.269870           0.469959           0.613038
hessian_block                2      26          -2.079567           0.784318          -1.292490           3.758407           0.217897           3.586535           3.565637           0.256710           3.987010
hessian_block                2      27          -0.132886          -0.211792          -0.313684          -0.207461          -0.362104          -0.185445           0.183707           0.060139           0.196601
hessian_block                2      28           0.247978           0.316105           0.535289          -0.345630          -0.904164          -0.615647          -0.248781          -0.433674          -0.532780
hessian_block                2      29          -0.678138          -0.260095          -1.375353           0.235461           0.019986          -0.219012          -0.326471          -0.345341          -0.089386
hessian_block                2      30           0.080781           0.140383          -0.130136           0.232621           0.401148           0.449702          -0.148075           0.022040          -0.037137
hessian_block                2      31           1.346157          -0.690637           0.621394           0.608444           0.172411           0.892360           0.053764          -0.173456          -0.202033
hessian_block                2      32           0.250783           0.141294           0.407224           0.471000           0.004212          -0.251160           0.542376           0.253270           1.615698
hessian_block                2      33           0.112902           0.346786           0.570500          -0.692830           0.829022           0.062174          -0.134068          -0.374064          -0.512393
hessian_block                2      34           0.178330          -0.415829          -0.302915          -1.503882           0.442477          -1.116135          -0.058493           0.173740           0.191291
hessian_block                2      35          -2.261535           3.400433           3.307113           0.145947           0.445876           0.213535          -2.039140           2.694227           2.474863
hessian_block                2      36           0.681909          -0.541070           0.300210           0.248498          -0.736050          -0.558263           0.135702           0.370746           0.513829
hessian_block                2      37           0.046570          -0.489928          -0.395724           0.083747           0.465842           0.208248          -0.024105          -0.034048           0.090579
hessian_block                2      38          -0.701579           0.662604          -0.436292           0.485989          -0.211995           0.230690          -0.052991          -0.100011          -0.019195
hessian_block                3       3          30.919672           1.093187         -42.370274           1.093187         117.712717          -1.893870         -42.370274          -1.893870          97.715523
hessian_block                3       4           1.505647          -0.834595          -3.994171           0.432447          -2.603009          -1.110516          -4.090596           1.171739           7.473038
hessian_block                3       5          -0.768188          -0.300150           1.352535          -2.004753           1.041729           3.902906          -4.121698           1.346117           8.290395
hessian_block                3       6          -1.398466           2.373061           2.868942           1.425905           0.738698          -2.600091          -3.877804           1.306886           7.769754
hessian_block                3       7           0.471810          -1.234664          -0.344508           0.511001          -1.250024          -0.369184          -0.244939           0.563875           0.086675
hessian_block                3       8          -0.327387           1.405905           0.833635          -0.082956           0.091000           0.166626          -0.471607           1.431668           1.056683
hessian_block                3       9         -11.809119          -7.924538          14.204485          -8.215231         -52.268575          14.967291          13.785879          14.607808         -32.526195
hessian_block                3      10           0.027478           0.306262           0.721562          -2.262950           3.275456           3.718981           0.751804          -0.237676          -0.612929
hessian_block                3      11          -0.183900           0.656273           0.390600           0.412427          -1.272072          -0.927220           0.513080          -1.411158          -1.112601
hessian_block                3      12           0.192466          -1.529704          -0.039169           0.168670          -0.841741          -0.145106           0.075108          -0.317809           0.211695
hessian_block                3      13           0.816900          -3.003833          -2.064461           0.415604          -1.567535          -0.995152           0.485644          -0.131057          -0.605712
hessian_block                3      14           0.246281          -0.597306          -0.722876           0.326596          -1.220743          -0.992536           1.349232          -1.683092          -3.024957
hessian_block                3      15          -0.156751           0.821276           1.014494           1.350706           3.290451          -2.153496           1.220676          -0.868385          -1.547183
hessian_block                3      16         -11.191710           7.310149          13.511292           6.549108         -48.631083         -11.983243          12.897121         -13.636719         -30.609749
hessian_block                3      17          -0.059528           0.682603           0.350083          -0.421622           1.175149           1.176285          -1.298717           1.658176           2.930729
hessian_block                3      18           0.062855          -1.263218          -0.668076           0.468437          -1.465096          -0.960831          -0.723419           0.538482           1.023655
hessian_block                3      19          -0.472971          -0.089071           1.086485           1.045096           0.032279          -2.231018          -2.425514          -0.080834           4.808912
hessian_block                3      20          -0.576627           0.099900           1.469560          -1.059424           0.065094           2.362590          -2.440079          -0.096229           4.855122
hessian_block                3      21         -10.423420          -0.141658          18.764180          -0.117841          -9.261271           0.128131          18.577776          -0.139685         -41.803544
hessian_block                3      22          -0.997284          -0.069468           2.225607          -0.074657           0.386025           0.241259           2.513778           0.118096          -4.925003
hessian_block                3      23           0.654464          -0.011643          -1.349540           0.997747          -0.113045          -2.414698           2.494989           0.094209          -4.941537
hessian_block                3      24           0.683217          -0.090292          -1.472751          -0.931862           0.073400           2.154663           2.389642           0.200478          -4.690036
hessian_block                3      25          -0.896674           1.146097           0.980302          -0.028841           0.593100          -0.398796          -0.489931          -0.438349           0.927048
hessian_block                3      26           0.217642          -1.175685          -0.496589          -0.481737           1.019465           1.017800          -0.131659           0.047831           0.291484
hessian_block                3      27           1.324200          -1.190412          -2.360303           1.078818          -4.089253          -1.941250          -1.867122           2.331784           4.379599
hessian_block                3      28           0.070227          -0.020790           0.810269           0.669348          -1.217065          -0.468621           0.616894           0.553791          -0.709423
hessian_block                3      29           0.710964          -1.518158          -1.409879           0.102025           0.489325          -0.174558           0.256633          -0.100678          -0.502830
hessian_block                3      30          -0.002864           1.229103          -0.328124          -0.298457           0.512980           0.536017           0.028068           0.390890          -0.343556
hessian_block                3      31          -0.108533           3.762972           0.861333          -0.440370           0.861702           1.104721           0.090490           0.918119          -0.290160
hessian_block                3      32          -0.092791           0.037805           0.338761           0.026462           1.751365          -0.149839          -0.640143           1.890877           1.181093
hessian_block                3      33           0.056280          -0.348798           0.764346          -0.258495          -2.057626          -0.270996           0.502547           0.626920          -0.520039
hessian_block                3      34           1.353478           2.532787          -2.224868          -0.512422          -6.454237           0.505113          -1.837582          -3.628314           4.175394
hessian_block                3      35          -0.184084          -1.438937           0.477236           0.118081          -0.941592          -0.289974           0.618408          -1.851408          -1.132090
hessian_block                3      36           0.086407           1.670602           0.540893           0.436155           1.381621          -0.449338          -0.343237          -0.651897           0.659668
hessian_block                3      37           0.488838          -0.277679           0.129040          -0.231339           0.180592           0.035204           0.047351          -0.009094           0.093521
hessian_block                3      38          -0.006810          -2.249708          -0.303938           0.069136           1.280926           0.237107           0.100510          -0.047325          -0.008783
hessian_block                4       4          32.251683          -0.891271         -43.243164          -0.891271         120.345226           1.185241         -43.243164           1.185241          96.854707
hessian_block                4       5           0.682086          -0.112064          -1.481164           1.958496           0.858692          -3.937440           4.188655           1.062572          -8.150405
hessian_block                4       6           1.544780           1.811976          -2.794811          -1.285980           0.460883           2.703417           3.867775           1.056794          -7.723684
hessian_block                4       7          -0.542440          -1.096701           0.469328          -0.545966          -1.200361           0.534063           0.284637           0.637097          -0.122879
hessian_block                4       8           0.387137           1.122287          -0.886001           0.076892           0.105901          -0.157278           0.570235           1.184213          -1.028608
hessian_block                4       9           0.296857           0.055158           0.382681           2.068470           3.107313          -3.475407           0.632597           0.104221          -0.395683
hessian_block                4      10         -11.709247           8.533747          13.908829           8.811567         -51.906254         -15.179633          13.771730         -14.767698         -31.889388
hessian_block                4      11           0.222115           0.515678          -0.439772          -0.463570          -1.050859           0.984567          -0.608720          -1.177491           1.098082
hessian_block                4      12          -0.335730          -1.331537           0.071855          -0.189243          -0.648709           0.176748          -0.069262          -0.429845          -0.167678
hessian_block                4      13          -1.100833          -2.215321           2.007956          -0.516263          -1.018608           0.932255          -0.434704          -0.283714           0.577189
hessian_block                4      14          -0.216794          -0.503676           0.614428          -0.454881          -1.001896           1.091346          -1.559260          -1.244749           2.691679
hessian_block                4      15         -11.323817          -6.850174          13.323004          -7.258621         -51.593333          13.675427          13.116820          13.394732         -30.272203
hessian_block                4      16           0.164964          -0.419483           0.608184          -0.337074           3.929053           0.762764           0.979114           0.646235          -1.162671
hessian_block                4      17           0.178969           0.535509          -0.474692           0.457899           0.987563          -1.145558           1.507879           1.218287          -2.590318
hessian_block                4      18          -0.251949          -0.734178           0.549108          -0.537509          -1.178218           0.992613           0.733424           0.619309          -1.002197
hessian_block                4      19           0.516169          -0.129290          -0.989094          -1.117170           0.093877           2.108502           2.471668          -0.175539          -4.585665
hessian_block                4      20           0.707562           0.001978          -1.325741           1.171678          -0.072036          -2.135070           2.477299          -0.198081          -4.613261